# Si cell

FIX_ALL_CELL         True
FIX_COM              True

%BLOCK LATTICE_CART
 ... fill this in ...
%ENDBLOCK LATTICE_CART

%BLOCK POSITIONS_ABS
 ... fill this in ...
%ENDBLOCK POSITIONS_ABS
