#######################################################
#CASTEP cell file: Si64_I2_XEX_0.cell
#Created using the Atomic Simulation Environment (ASE)#
#######################################################

%BLOCK LATTICE_CART
10.955668 -0.065777 -0.009625
-0.065777 10.955550 -0.009230
-0.009625 -0.009230 11.182956
%ENDBLOCK LATTICE_CART

%BLOCK POSITIONS_ABS
Si -2.694808 -2.408341 -6.125941
Si -2.673939 -2.389271 -0.562106
Si -2.686698  3.141425 -6.102618
Si -2.734071  3.222899 -0.274220
Si  2.855424 -2.400683 -6.102414
Si  2.935580 -2.446506 -0.274256
Si  2.874309  3.160924 -6.155031
Si  2.735109  3.021528 -0.515480
Si -5.346979 -5.060062 -6.018578
Si -5.373649 -5.086436 -0.477431
Si -5.440905  0.406106 -6.062538
Si -5.392398  0.437529 -0.455516
Si  0.119908 -5.154288 -6.063096
Si  0.150554 -5.105942 -0.455915
Si  0.081506  0.368020 -6.119890
Si -1.055429  1.587118 -0.404945
Si -2.593485 -5.104263 -3.267813
Si -2.634341 -5.070439  2.349844
Si -2.703477  0.301682 -3.457074
Si -2.940732  0.562628  2.525149
Si  2.848132 -5.113842 -3.257896
Si  2.920389 -5.236421  2.355611
Si  2.870081  0.461481 -3.478764
Si  2.795670  0.378458  2.289286
Si -5.390044 -2.305993 -3.266640
Si -5.356946 -2.348038  2.349718
Si -5.400614  3.134653 -3.258070
Si -5.523219  3.207390  2.355913
Si  0.015228 -2.416993 -3.457843
Si  0.275246 -2.652737  2.524631
Si  0.175258  3.156821 -3.478847
Si  0.091784  3.081652  2.288333
Si -6.710801 -6.423996 -4.630997
Si -6.770498 -6.483564  0.897168
Si -6.759564 -0.978155 -4.692179
Si -6.678601 -0.949189  1.012757
Si -1.264480 -6.473234 -4.693025
Si -1.235823 -6.392256  1.012048
Si -1.354419 -1.067734 -4.833815
Si -2.053788 -0.201193  0.577985
Si -3.995714 -3.708817 -4.620881
Si -3.996070 -3.709903  0.936325
Si -4.060705  1.779737 -4.708857
Si -4.189777  1.895950  1.024875
Si  1.493728 -3.774451 -4.709112
Si  1.609013 -3.902855  1.024690
Si  1.533922  1.820387 -4.868148
Si  1.297671  1.583357  0.776459
Si -6.708582 -3.724980 -7.452350
Si -6.753446 -3.661164 -1.854867
Si -6.787794  1.790013 -7.468452
Si -6.794975  1.759950 -1.887988
Si -1.287715 -3.803789 -7.391989
Si -1.208873 -3.731763 -1.889476
Si -1.288203  1.782265 -7.470442
Si -0.734448  1.212837 -2.609068
Si -4.011415 -6.421878 -7.452190
Si -3.948562 -6.466584 -1.855113
Si -4.090586 -1.001580 -7.391843
Si -4.016630 -0.922383 -1.887699
Si  1.503423 -6.501900 -7.469229
Si  1.473753 -6.508603 -1.888005
Si  1.496110 -1.001933 -7.469916
Si  0.926268 -0.448623 -2.608680
Si  1.299105 -0.767621 -0.404380
Si -0.490163 -1.766804  0.577774
%ENDBLOCK POSITIONS_ABS

