#######################################################
#CASTEP cell file: Si64_I2_XX3_00A.cell
#Created using the Atomic Simulation Environment (ASE)#
#######################################################

%BLOCK LATTICE_CART
11.012895 -0.142817  0.082318
-0.142817 11.067231 -0.129552
 0.082318 -0.129552 11.035889
%ENDBLOCK LATTICE_CART

%BLOCK POSITIONS_ABS
Si -3.390791 -6.073268 -6.151859
Si -3.422987 -6.081737 -0.629070
Si -3.455036 -0.574422 -6.205983
Si -3.557570 -0.561225 -0.809845
Si  2.124932 -6.217347 -6.132087
Si  2.138625 -6.245983 -0.601346
Si  2.075498 -0.651011 -6.157989
Si  2.547767 -1.234485 -0.265425
Si -6.140117 -3.328910 -6.161061
Si -6.092245 -3.387012 -0.680196
Si -6.287072  2.234760 -6.295678
Si -6.240114  2.138215 -0.764755
Si -0.663474 -3.417893 -6.105495
Si -0.560802 -3.422059 -0.574938
Si -0.757526  2.149570 -6.244292
Si -0.962749  2.475775 -0.959767
Si -3.360355 -3.301723 -3.367875
Si -3.364360 -3.437441  2.086026
Si -3.537420  2.214407 -3.556722
Si -3.557095  2.218238  2.097891
Si  2.086361 -3.462510 -3.396103
Si  2.315905 -3.773859  2.308054
Si  2.042411  2.220701 -3.569287
Si  1.991998  1.952334  1.963922
Si -6.121013 -6.082728 -3.398338
Si -6.102692 -6.207063  2.102278
Si -6.231660 -0.558563 -3.544048
Si -6.078831 -0.653050  2.143490
Si -0.625916 -6.084744 -3.449141
Si -0.576526 -6.234202  2.139493
Si -0.749434 -0.613707 -3.499835
Si -0.290752 -1.159489  2.464938
Si -2.029684 -4.716724 -4.748186
Si -1.961304 -4.816486  0.756991
Si -2.123405  0.784491 -4.852448
Si -2.513199  1.238832  0.291866
Si  3.486356 -4.860727 -4.728622
Si  3.600684 -4.981402  0.783832
Si  3.407152  0.708258 -4.803631
Si  3.592331  0.566228  0.836777
Si -4.772781 -1.958609 -4.796948
Si -4.738221 -1.991631  0.708321
Si -4.919621  3.604179 -4.931002
Si -4.886149  3.534606  0.623541
Si  0.709607 -2.015772 -4.765752
Si  0.997548 -2.472164  0.986506
Si  0.615141  3.552095 -4.904690
Si  0.595729  3.426429  0.600940
Si -1.957844 -1.947517 -1.937445
Si -2.007716 -2.215886  3.594411
Si -2.280658  3.777697 -2.281348
Si -2.051845  3.466137  3.421768
Si  3.591660 -2.214327 -2.071026
Si  3.572908 -2.210743  3.582891
Si  3.398304  3.441828 -2.060396
Si  3.395043  3.306092  3.394239
Si -4.732907 -4.713687 -2.029766
Si -4.714371 -4.838183  3.471251
Si -4.898620  0.799716 -2.199311
Si -4.746379  0.704885  3.487013
Si  0.754000 -4.829054 -1.983881
Si  0.803493 -4.978276  3.604287
Si  0.324426  1.163306 -2.439512
Si  0.783542  0.618604  3.526166
Si  0.966330  0.321902 -0.469347
Si -0.931374 -0.317879  0.495641
%ENDBLOCK POSITIONS_ABS

