#######################################################
#CASTEP cell file: Si64_I2_XT_02A.cell
#Created using the Atomic Simulation Environment (ASE)#
#######################################################

%BLOCK LATTICE_CART
10.961799 -0.083692  0.002376
-0.083692 10.962110 -0.002617
 0.002376 -0.002617 11.021021
%ENDBLOCK LATTICE_CART

%BLOCK POSITIONS_ABS
Si -5.428473 -5.428515 -3.809417
Si -5.428640 -5.429535  1.729208
Si -5.471237  0.051728 -3.825934
Si -5.469589  0.050852  1.696126
Si  0.052307 -5.470926 -3.823459
Si  0.053122 -5.471862  1.698458
Si  0.010174  0.010567 -3.817219
Si -0.834913  0.855002  2.222734
Si -2.703585 -2.703427 -3.809786
Si -2.684392 -2.686297  1.670373
Si -2.763986  2.784207 -3.824711
Si -2.896822  2.918056  1.737902
Si  2.783751 -2.763164 -3.822522
Si  2.917940 -2.897641  1.739880
Si  2.724347  2.725234 -3.810325
Si  2.706763  2.705343  1.670110
Si -5.435172 -2.682680 -6.557565
Si -5.429282 -2.692856 -1.059362
Si -5.508009  2.788790 -6.558614
Si -5.511812  2.796281 -1.060560
Si  0.029847 -2.761178 -6.520950
Si  0.039471 -2.790566 -1.113555
Si -0.010627  2.784221 -6.522186
Si -0.018116  2.809716 -1.114851
Si -2.684371 -5.433362 -6.556476
Si -2.692115 -5.429393 -1.057916
Si -2.763554  0.031900 -6.522180
Si -2.788752  0.039466 -1.114757
Si  2.786225 -5.505328 -6.555063
Si  2.796614 -5.511900 -1.056903
Si  2.782347 -0.008787 -6.520956
Si  2.810176 -0.019428 -1.113870
Si -4.062257 -4.061347 -2.434839
Si -4.046381 -4.047994  3.085711
Si -4.152383  1.431373 -2.462931
Si -4.127906  1.410287  3.093635
Si  1.429154 -4.151301 -2.460022
Si  1.411228 -4.128600  3.095897
Si  1.355722  1.357761 -2.417756
Si  1.410965  1.409699  3.174431
Si -6.796198 -6.795234 -2.434812
Si -6.810144 -6.811139  3.085155
Si -6.789709 -1.325986 -2.463208
Si -6.812830 -1.307761  3.093460
Si -1.326314 -6.789110 -2.460033
Si -1.306087 -6.814898  3.096037
Si -1.336384 -1.335537 -2.417079
Si -1.390136 -1.390211  3.174581
Si -4.055947 -6.801256 -5.190226
Si -4.117853 -6.739392  0.313875
Si -4.105156 -1.329494 -5.149378
Si -4.086589 -1.310912  0.329247
Si  1.433955 -6.836680 -5.147279
Si  1.415028 -6.854434  0.331921
Si  1.394741 -1.373530 -5.166194
Si  1.721421 -1.700978  0.134249
Si -6.803721 -4.053644 -5.191556
Si -6.739542 -4.117923  0.313373
Si -6.838665  1.436183 -5.150589
Si -6.854661  1.414932  0.328326
Si -1.331814 -4.102403 -5.147893
Si -1.310788 -4.087117  0.330249
Si -1.375981  1.396464 -5.167039
Si -1.700447  1.720660  0.133451
Si  0.009863  0.009880  0.036501
Si  0.857199 -0.836940  2.223047
%ENDBLOCK POSITIONS_ABS

