#######################################################
#CASTEP cell file: Si64_I2_TT_1NNN.cell
#Created using the Atomic Simulation Environment (ASE)#
#######################################################

%BLOCK LATTICE_CART
10.980471 -0.026909  0.026860
-0.026909 10.985665 -0.028047
 0.026860 -0.028047 10.988796
%ENDBLOCK LATTICE_CART

%BLOCK POSITIONS_ABS
Si -4.814437 -6.122254 -2.053614
Si -4.755996 -6.180597  3.446732
Si -4.816550 -0.668744 -2.085037
Si -4.796775 -0.667366  3.450940
Si  0.714615 -6.145642 -2.058888
Si  0.713721 -6.168616  3.478277
Si  0.715855 -0.697496 -2.157144
Si  0.727949 -0.709688  3.520911
Si -2.087410 -3.471618 -2.088623
Si -2.031234 -3.419733  3.439875
Si -2.130780  2.153207 -2.134802
Si -2.088205  2.108059  3.492083
Si  3.437609 -3.419253 -2.032805
Si  3.535707 -3.517906  3.538485
Si  3.490834  2.108549 -2.090259
Si  3.437209  2.052349  3.439422
Si -4.782484 -3.398496 -4.787123
Si -4.796389 -3.430441  0.687354
Si -4.841158  2.100219 -4.846051
Si -4.817023  2.103677  0.688262
Si  0.687089 -3.430398 -4.800146
Si  0.728959 -3.499860  0.729099
Si  0.687904  2.105725 -4.822465
Si  0.715506  2.172891  0.716078
Si -2.051771 -6.121956 -4.818038
Si -2.056757 -6.144671  0.716226
Si -2.083675 -0.667970 -4.822404
Si -2.148721 -0.698465  0.718810
Si  3.443415 -6.179875 -4.759638
Si  3.476276 -6.168099  0.713764
Si  3.449524 -0.666733 -4.799808
Si  3.514758 -0.709422  0.728140
Si -3.423506 -4.757933 -6.182563
Si -3.429256 -4.797087 -0.667226
Si -3.456063  0.714820 -6.170297
Si -3.493986  0.728769 -0.709886
Si  2.071834 -4.816115 -6.124250
Si  2.104373 -4.820201 -0.668038
Si  2.077083  0.715595 -6.147448
Si  2.168832  0.718759 -0.700429
Si -6.146388 -2.025848 -6.151035
Si -6.143849 -2.057332 -0.696245
Si -6.204678  3.472745 -6.209896
Si -6.164296  3.476072 -0.695488
Si -0.695538 -2.057715 -6.146632
Si -0.695088 -2.152314 -0.697587
Si -0.693044  3.477408 -6.170373
Si -0.708703  3.519712 -0.710364
Si -3.417007 -2.032300 -3.420150
Si -3.470126 -2.089049  2.109083
Si -3.516176  3.537924 -3.519489
Si -3.417483  3.438633  2.051672
Si  2.107891 -2.089280 -3.473973
Si  2.150788 -2.134169  2.154439
Si  2.050733  3.439522 -3.421142
Si  2.106667  3.491604  2.107585
Si -6.177431 -4.758218 -3.426766
Si -6.119089 -4.816519  2.073865
Si -6.163131  0.714290 -3.458538
Si -6.143829  0.715537  2.077373
Si -0.666597 -4.798394 -3.431481
Si -0.668171 -4.820984  2.106527
Si -0.708491  0.728706 -3.501626
Si -0.695697  0.716099  2.174848
Si -0.693402  0.713858 -0.700653
Si  0.714960 -0.694201  0.717160
%ENDBLOCK POSITIONS_ABS

