#######################################################
#CASTEP cell file: Si64_I2_XT_01L.cell
#Created using the Atomic Simulation Environment (ASE)#
#######################################################

%BLOCK LATTICE_CART
10.974716 -0.017296  0.019172
-0.017296 10.975298  0.018039
 0.019172  0.018039 10.975789
%ENDBLOCK LATTICE_CART

%BLOCK POSITIONS_ABS
Si -4.575118 -4.576140 -4.609121
Si -4.572424 -4.573222  0.886105
Si -4.590425  0.904409 -4.592486
Si -4.580487  0.917036  0.893187
Si  0.904381 -4.590582 -4.592732
Si  0.917850 -4.582790  0.892863
Si  0.899508  0.898128 -4.582705
Si  0.085613  1.862964  1.724957
Si -7.310653 -7.310239 -4.607016
Si -7.282444 -7.283790  0.846004
Si -7.314500 -1.834847 -4.612144
Si -7.252935 -1.877197  0.868655
Si -1.834160 -7.314438 -4.611798
Si -1.875995 -7.253390  0.870122
Si -1.837113 -1.836702 -4.612114
Si -1.848390 -1.848698  0.850038
Si -4.570869 -7.314272 -7.348817
Si -4.577582 -7.310360 -1.872758
Si -4.572688 -1.836315 -7.347253
Si -4.569715 -1.834314 -1.869249
Si  0.921831 -7.271788 -7.288319
Si  0.947777 -7.301241 -1.881021
Si  0.942221 -1.866768 -7.316505
Si  0.921464 -1.893318 -1.910129
Si -7.314519 -4.570696 -7.349264
Si -7.310011 -4.577833 -1.874082
Si -7.271558  0.920886 -7.288990
Si -7.300550  0.946648 -1.881478
Si -1.836908 -4.572866 -7.347423
Si -1.834691 -4.570918 -1.868596
Si -1.865997  0.942696 -7.316452
Si -1.893031  0.922028 -1.910341
Si -3.199965 -3.200416 -3.244119
Si -3.208276 -3.209142  2.254043
Si -3.251899  2.301657 -3.254743
Si -3.221325  2.305744  2.256559
Si  2.301332 -3.252108 -3.253754
Si  2.305524 -3.222126  2.255711
Si  2.272128  2.271241 -3.219379
Si  2.402336  2.401799  2.396870
Si -5.945068 -5.945844 -3.239008
Si -5.931917 -5.933106  2.257449
Si -5.950451 -0.464733 -3.232211
Si -5.935856 -0.452134  2.261515
Si -0.463996 -5.951862 -3.231613
Si -0.451030 -5.936198  2.262236
Si -0.470593 -0.471197 -3.229143
Si -0.533130 -0.533599  2.345732
Si -3.199541 -5.940241 -5.982847
Si -3.234320 -5.909961 -0.510065
Si -3.227383 -0.461544 -5.956314
Si -3.221672 -0.445701 -0.494395
Si  2.301939 -5.927022 -5.929846
Si  2.290301 -5.944819 -0.478132
Si  2.287093 -0.464585 -5.941491
Si  2.401441 -0.584640 -0.590263
Si -5.939607 -3.200732 -5.983273
Si -5.909567 -3.235233 -0.511230
Si -5.926978  2.301837 -5.931002
Si -5.944153  2.289077 -0.478335
Si -0.462825 -3.227752 -5.956712
Si -0.445649 -3.223099 -0.494166
Si -0.463164  2.286806 -5.941422
Si -0.584080  2.401935 -0.591315
Si  0.084282  0.085501 -0.049948
Si  1.864642  0.086281  1.724222
%ENDBLOCK POSITIONS_ABS

