#######################################################
#CASTEP cell file: Si64_I2_EXT_1S.cell
#Created using the Atomic Simulation Environment (ASE)#
#######################################################

%BLOCK LATTICE_CART
10.899849  0.021673 -0.037207
 0.021673 10.915027  0.027530
-0.037207  0.027530 11.164093
%ENDBLOCK LATTICE_CART

%BLOCK POSITIONS_ABS
Si -4.331400 -2.341659 -5.302160
Si -4.282408 -2.206848  0.278198
Si -4.261931  3.211238 -5.288019
Si -4.166403  3.095187  0.601778
Si  1.178131 -2.244003 -5.359286
Si  1.312058 -2.506303  0.521370
Si  1.264060  3.268502 -5.343361
Si  1.138547  3.237773  0.278906
Si -7.004316 -4.984616 -5.252305
Si -6.918194 -5.086963  0.302553
Si -6.981721  0.466861 -5.297116
Si -7.024662  0.488134  0.321795
Si -1.543570 -4.953464 -5.313886
Si -1.600446 -4.975865  0.283617
Si -1.579786  0.474264 -5.327867
Si -2.439267  1.357075  0.619634
Si -4.267524 -5.003206 -2.461959
Si -4.316578 -4.917598  3.122830
Si -4.291412  0.386378 -2.603726
Si -4.377917  0.457472  3.171721
Si  1.161502 -4.983091 -2.516460
Si  1.134688 -4.972060  3.087690
Si  1.227889  0.629273 -2.816634
Si  1.101456  0.528746  3.059181
Si -7.057506 -2.236433 -2.444754
Si -6.967868 -2.260176  3.145301
Si -6.918018  3.208831 -2.465275
Si -7.067164  3.240858  3.156237
Si -1.627581 -2.312881 -2.676048
Si -1.632277 -2.157606  3.039874
Si -1.483023  3.253342 -2.608119
Si -1.532560  3.298586  3.162403
Si -2.933550 -6.311339 -3.937478
Si -2.939035 -6.257770  1.787355
Si -2.990131 -0.963399 -4.027550
Si -3.014448 -0.745232  1.664372
Si  2.554760 -6.329970 -3.897777
Si  2.488829 -6.317815  1.654207
Si  2.566701 -0.887899 -3.998764
Si  2.559667 -0.888687  1.788734
Si -5.673764 -3.633027 -3.826165
Si -5.640148 -3.596504  1.678339
Si -5.621545  1.834359 -3.909865
Si -5.732412  1.851769  1.830286
Si -0.154276 -3.619597 -3.951391
Si -0.291475 -3.664130  1.761207
Si -0.189956  1.977413 -4.097204
Si -0.291478  1.922134  1.663919
Si -2.915755 -3.584867 -6.696398
Si -2.910608 -3.578556 -1.115724
Si -2.920838  1.852594 -6.705895
Si -2.339024  1.287602 -1.668211
Si  2.550173 -3.623467 -6.716008
Si  2.583275 -3.705566 -1.108737
Si  2.534561  1.843964 -6.704516
Si  2.524068  1.928570 -1.145606
Si -5.658472 -6.331487 -6.675928
Si -5.478571 -6.495905 -1.036924
Si -5.640462 -0.933783 -6.613519
Si -5.657604 -0.860919 -1.100878
Si -0.160553 -6.305778 -6.660440
Si -0.234368 -6.324190 -1.135389
Si -0.205710 -0.870044 -6.717999
Si -0.697322 -0.400359 -1.763105
Si -0.285280 -0.601603  0.532764
Si  1.668502 -0.503633 -0.706094
%ENDBLOCK POSITIONS_ABS

