


KPOINTS_MP_SPACING   0.06
positions_noise      0.3 Ang
FIX_ALL_CELL         True
FIX_COM              True

%BLOCK LATTICE_CART
 10.86        0.000000    0.000000
  0.000000   10.86        0.000000
  0.000000    0.000000   10.86
%ENDBLOCK LATTICE_CART

%BLOCK POSITIONS_ABS
Si  -4.33140049     -2.34165924     -5.30216027
Si  -4.28240770     -2.20684780      0.27819758
Si  -4.26193085      3.21123771     -5.28801937
Si  -4.16640349      3.09518741      0.60177849
Si   1.17813082     -2.24400345     -5.35928559
Si   1.31205823     -2.50630320      0.52137027
Si   1.26405968      3.26850192     -5.34336059
Si   1.13854728      3.23777304      0.27890581
Si  -7.00431612     -4.98461553     -5.25230504
Si  -6.91819443     -5.08696321      0.30255341
Si  -6.98172059      0.46686077     -5.29711646
Si  -7.02466200      0.48813433      0.32179515
Si  -1.54356963     -4.95346361     -5.31388618
Si  -1.60044557     -4.97586499      0.28361723
Si  -1.57978644      0.47426429     -5.32786705
Si  -2.43926664      1.35707458      0.61963381
Si  -4.26752428     -5.00320581     -2.46195891
Si  -4.31657803     -4.91759809      3.12282964
Si  -4.29141190      0.38637781     -2.60372639
Si  -4.37791736      0.45747241      3.17172120
Si   1.16150210     -4.98309105     -2.51645976
Si   1.13468836     -4.97205998      3.08769028
Si   1.22788851      0.62927289     -2.81663372
Si   1.10145608      0.52874607      3.05918118
Si  -7.05750594     -2.23643312     -2.44475416
Si  -6.96786798     -2.26017576      3.14530105
Si  -6.91801759      3.20883137     -2.46527518
Si  -7.06716363      3.24085786      3.15623713
Si  -1.62758066     -2.31288137     -2.67604815
Si  -1.63227716     -2.15760569      3.03987375
Si  -1.48302347      3.25334183     -2.60811930
Si  -1.53255962      3.29858606      3.16240304
Si  -2.93355034     -6.31133898     -3.93747796
Si  -2.93903528     -6.25776986      1.78735498
Si  -2.99013099     -0.96339871     -4.02755015
Si  -3.01444850     -0.74523157      1.66437222
Si   2.55476013     -6.32997014     -3.89777708
Si   2.48882939     -6.31781455      1.65420667
Si   2.56670101     -0.88789894     -3.99876374
Si   2.55966686     -0.88868705      1.78873394
Si  -5.67376406     -3.63302706     -3.82616468
Si  -5.64014804     -3.59650440      1.67833944
Si  -5.62154517      1.83435893     -3.90986516
Si  -5.73241156      1.85176903      1.83028552
Si  -0.15427649     -3.61959738     -3.95139121
Si  -0.29147537     -3.66413007      1.76120731
Si  -0.18995553      1.97741250     -4.09720448
Si  -0.29147785      1.92213429      1.66391949
Si  -2.91575536     -3.58486662     -6.69639835
Si  -2.91060769     -3.57855593     -1.11572438
Si  -2.92083824      1.85259424     -6.70589500
Si  -2.33902381      1.28760177     -1.66821069
Si   2.55017270     -3.62346695     -6.71600757
Si   2.58327458     -3.70556556     -1.10873659
Si   2.53456134      1.84396440     -6.70451594
Si   2.52406784      1.92857005     -1.14560570
Si  -5.65847219     -6.33148653     -6.67592772
Si  -5.47857096     -6.49590494     -1.03692449
Si  -5.64046183     -0.93378309     -6.61351859
Si  -5.65760391     -0.86091860     -1.10087849
Si  -0.16055337     -6.30577832     -6.66044019
Si  -0.23436834     -6.32419043     -1.13538945
Si  -0.20571001     -0.87004440     -6.71799876
Si  -0.69732192     -0.40035890     -1.76310489
Si  -0.28527954     -0.60160287      0.53276427
Si   1.66850230     -0.50363289     -0.70609423
%ENDBLOCK POSITIONS_ABS
