# Si cell

KPOINTS_MP_SPACING   0.06
positions_noise      0.3 Ang
FIX_ALL_CELL         True
FIX_COM              True

%BLOCK LATTICE_CART
 5.430000  0.000000  0.000000
 0.000000  5.430000  0.000000
 0.000000  0.000000  5.430000
%ENDBLOCK LATTICE_CART

%BLOCK POSITIONS_ABS
Si  0.000000  0.000000  0.000000
Si  1.357500  1.357500  1.357500
Si  0.000000  2.715000  2.715000
Si  1.357500  4.072500  4.072500
Si  2.715000  0.000000  2.715000
Si  4.072500  1.357500  4.072500
Si  2.715000  2.715000  0.000000
Si  4.072500  4.072500  1.357500
%ENDBLOCK POSITIONS_ABS
